row=10;
column=10;
Board=[|2,3,3,3,4,5,2,5,4,4|2,3,3,3,8,2,2,8,5,7|3,2,2,2,4,4,6,6,6,5|3,2,2,2,8,8,5,4,6,5|3,2,2,2,3,5,4,5,6,5|8,7,6,7,1,1,1,4,4,4|7,5,5,8,1,1,1,4,4,4|8,6,5,7,3,3,5,1,1,1|8,5,6,3,3,3,7,1,1,1|2,6,5,7,7,4,4,1,1,1|];
right = [28,0,28,8,11,6,5,0,0,0];
bottom = [6,3,15,5,4,17,0,11,16,9];
